SLURM_JOB_ID: 55214479
SLURM_JOB_USER: vsc34888
SLURM_JOB_ACCOUNT: lp_elect_gen_modeling
SLURM_JOB_NAME: 9n_full_MILP
SLURM_CLUSTER_NAME: genius
SLURM_JOB_PARTITION: batch
SLURM_NNODES: 1
SLURM_NODELIST: r26i13n23
SLURM_JOB_CPUS_PER_NODE: 36
Date: Wed Sep 13 10:26:05 CEST 2023
Walltime: 03-00:00:00
========================================================================
Activation OK
Starting runs

 #### Academic research license - for non-commercial use only #### 

9n
/vsc-hard-mounts/leuven-data/348/vsc34888/JointResearch/05.Models/06.Benchmarking/A.The_full_year_MILP
gurobi
['oSN_Main_v2.py']
Namespace(case='9n', dir='/vsc-hard-mounts/leuven-data/348/vsc34888/JointResearch/05.Models/06.Benchmarking/A.The_full_year_MILP', solver='gurobi')
Namespace(case='9n', dir='/vsc-hard-mounts/leuven-data/348/vsc34888/JointResearch/05.Models/06.Benchmarking/A.The_full_year_MILP', solver='gurobi')
Reading    input data                 ...  0 s
Setting up input data                 ...  10 s
Generating objective function         ...  2 s
Generating operation & investment     ...  0 s
Generating balance                    ...  19 s
Generating storage operation          ...  0 s
Generating generation commitment      ...  6 s
Generating generation capacity        ...  3 s
Generating net P capacity bounds      ...  8 s
Generating net Q capacity bounds      ...  8 s
Generating net P constraints          ...  34 s
Generating net Q constraints          ...  38 s
Generating net voltage bounds         ...  1 s
Generating net non negative losses    ...  1 s
Generating net linear SOC2            ...  4 s
Generating net gshb injection         ...  0 s
Generating net bshb injection         ...  0 s
Econometric analysis  constraints     ...  0 s
Writing LP file                       ...  152 s
Set parameter Username
Set parameter TokenServer to value "SET-S-ME-LM3.luna.kuleuven.be"
Read LP format model from file /tmp/tmpvil_brwv.pyomo.lp
Reading time = 11.27 seconds
x1: 4210755 rows, 1900399 columns, 13646246 nonzeros
Set parameter QCPDual to value 1
Set parameter LogFile to value "/vsc-hard-mounts/leuven-data/348/vsc34888/JointResearch/05.Models/06.Benchmarking/A.The_full_year_MILP/9n/openStarNet_9n.log"
Set parameter Method to value 2
Set parameter MIPFocus to value 1
Set parameter Presolve to value 2
Set parameter RINS to value 100
Set parameter MIPGap to value 0.01
Set parameter Threads to value 36
Set parameter TimeLimit to value 76000
Set parameter IterationLimit to value 76000000
Gurobi Optimizer version 9.5.0 build v9.5.0rc5 (linux64)
Thread count: 36 physical cores, 36 logical processors, using up to 36 threads
Optimize a model with 4210755 rows, 1900399 columns and 13646246 nonzeros
Model fingerprint: 0xef97e74e
Variable types: 1900387 continuous, 12 integer (12 binary)
Coefficient statistics:
  Matrix range     [5e-04, 2e+02]
  Objective range  [1e+00, 1e+00]
  Bounds range     [4e-04, 1e+00]
  RHS range        [4e-04, 1e+00]
Presolve removed 1039596 rows and 244630 columns (presolve time = 6s) ...
Presolve removed 1465679 rows and 330000 columns (presolve time = 10s) ...
Presolve removed 1616163 rows and 515428 columns (presolve time = 15s) ...
Presolve removed 1616163 rows and 515428 columns (presolve time = 20s) ...
Presolve removed 1616163 rows and 515428 columns (presolve time = 25s) ...
Presolve removed 1616163 rows and 515428 columns (presolve time = 31s) ...
Presolve removed 1616163 rows and 515428 columns
Presolve time: 33.95s
Presolved: 2594592 rows, 1384971 columns, 9387135 nonzeros
Variable types: 1384959 continuous, 12 integer (12 binary)
Root relaxation presolve removed 0 rows and 0 columns (presolve time = 5s) ...
Root relaxation presolved: 2594592 rows, 1384971 columns, 9387135 nonzeros

Root barrier log...

Ordering time: 1.12s

Barrier statistics:
 Dense cols : 12
 AA' NZ     : 2.830e+07
 Factor NZ  : 5.711e+07 (roughly 2.0 GB of memory)
 Factor Ops : 1.704e+09 (less than 1 second per iteration)
 Threads    : 35

                  Objective                Residual
Iter       Primal          Dual         Primal    Dual     Compl     Time
   0   6.46855966e+05 -5.01254164e+07  8.18e+00 2.03e+00  3.10e+01    65s
   1   1.77747139e+05 -1.64414558e+07  1.18e+00 1.91e+00  5.26e+00    66s
   2   6.92670638e+04 -2.62607375e+06  4.10e-02 2.99e-02  5.85e-01    67s
   3   1.34663907e+04 -4.76187275e+05  2.25e-03 4.98e-10  1.02e-01    69s
   4   4.23725920e+03 -2.02037309e+04  2.89e-04 1.93e-11  5.09e-03    70s
   5   1.74110380e+03 -6.80396730e+03  4.41e-05 7.30e-12  1.78e-03    71s
   6   1.18875920e+03 -2.41657257e+03  2.09e-05 2.61e-12  7.49e-04    72s
   7   8.59136518e+02 -2.65055748e+02  9.68e-06 8.88e-13  2.33e-04    73s
   8   5.20581729e+02  2.47590893e+02  1.83e-06 1.09e-12  5.66e-05    74s
   9   5.06803871e+02  3.16428509e+02  1.59e-06 1.44e-12  3.94e-05    76s
  10   4.82942371e+02  3.26649510e+02  1.19e-06 1.36e-12  3.24e-05    77s
  11   4.80816600e+02  3.29558452e+02  1.15e-06 9.52e-13  3.13e-05    78s
  12   4.73856496e+02  3.36245448e+02  1.01e-06 1.72e-12  2.85e-05    79s
  13   4.65836968e+02  3.42964858e+02  8.47e-07 8.60e-13  2.55e-05    81s
  14   4.53385891e+02  3.54599973e+02  5.84e-07 7.32e-13  2.05e-05    82s
  15   4.44801287e+02  3.65056504e+02  3.97e-07 7.96e-13  1.65e-05    84s
  16   4.41333407e+02  3.75756217e+02  3.23e-07 7.03e-13  1.36e-05    87s
  17   4.38009578e+02  3.85235559e+02  2.47e-07 5.08e-13  1.09e-05    89s
  18   4.35254689e+02  3.91222260e+02  1.84e-07 7.39e-13  9.12e-06    91s
  19   4.33788546e+02  3.96124138e+02  1.52e-07 9.02e-13  7.80e-06    93s
  20   4.32394830e+02  3.99801562e+02  1.23e-07 6.04e-13  6.75e-06    95s
  21   4.31803124e+02  4.03028279e+02  1.10e-07 5.40e-13  5.96e-06    97s
  22   4.31170198e+02  4.03993719e+02  9.64e-08 3.77e-13  5.63e-06    98s
  23   4.30466470e+02  4.07041462e+02  8.15e-08 5.83e-13  4.85e-06   101s
  24   4.29673284e+02  4.09136590e+02  6.50e-08 2.70e-13  4.25e-06   103s
  25   4.28978676e+02  4.11522629e+02  5.05e-08 5.47e-13  3.62e-06   105s
  26   4.28345547e+02  4.13231114e+02  3.74e-08 3.38e-13  3.13e-06   107s
  27   4.28093902e+02  4.14423790e+02  3.22e-08 5.97e-13  2.83e-06   109s
  28   4.27738473e+02  4.15837568e+02  1.21e-06 7.46e-13  2.47e-06   111s
  29   4.27514897e+02  4.17167085e+02  2.21e-06 7.25e-13  2.14e-06   113s
  30   4.27320930e+02  4.18369514e+02  2.96e-06 1.17e-12  1.85e-06   115s
  31   4.27168956e+02  4.18822024e+02  3.44e-06 4.90e-13  1.73e-06   117s
  32   4.27097289e+02  4.19340772e+02  3.55e-06 9.52e-13  1.61e-06   119s
  33   4.26925136e+02  4.20262819e+02  3.81e-06 1.15e-12  1.38e-06   121s
  34   4.26825275e+02  4.20961088e+02  3.89e-06 1.42e-12  1.22e-06   123s
  35   4.26750022e+02  4.21949502e+02  3.93e-06 1.26e-12  9.95e-07   125s
  36   4.26716641e+02  4.22240637e+02  3.85e-06 1.12e-12  9.27e-07   127s
  37   4.26696764e+02  4.22423943e+02  3.77e-06 1.48e-12  8.85e-07   128s
  38   4.26627182e+02  4.23012810e+02  3.51e-06 4.90e-13  7.49e-07   130s
  39   4.26579845e+02  4.23484080e+02  3.32e-06 7.32e-13  6.41e-07   133s
  40   4.26534794e+02  4.23726650e+02  3.12e-06 5.26e-13  5.82e-07   135s
  41   4.26525844e+02  4.23792844e+02  3.07e-06 5.44e-13  5.66e-07   137s
  42   4.26504791e+02  4.24120975e+02  2.95e-06 7.60e-13  4.94e-07   139s
  43   4.26480483e+02  4.24370138e+02  2.76e-06 1.03e-12  4.37e-07   141s
  44   4.26450200e+02  4.24964076e+02  2.52e-06 1.09e-12  3.08e-07   143s
  45   4.26410739e+02  4.25163640e+02  2.05e-06 4.76e-13  2.58e-07   145s
  46   4.26402912e+02  4.25218253e+02  1.94e-06 8.03e-13  2.45e-07   147s
  47   4.26390523e+02  4.25292342e+02  1.77e-06 9.52e-13  2.28e-07   149s
  48   4.26381273e+02  4.25382406e+02  1.64e-06 1.04e-12  2.07e-07   151s
  49   4.26377115e+02  4.25598861e+02  1.57e-06 6.75e-13  1.61e-07   153s
  50   4.26370798e+02  4.25632835e+02  1.49e-06 9.88e-13  1.53e-07   155s
  51   4.26368256e+02  4.25752143e+02  1.44e-06 3.55e-13  1.28e-07   157s
  52   4.26364431e+02  4.25838425e+02  1.35e-06 1.92e-13  1.09e-07   159s
  53   4.26358184e+02  4.25918853e+02  1.18e-06 7.03e-13  9.10e-08   163s
  54   4.26350351e+02  4.25965627e+02  9.24e-07 5.47e-13  7.97e-08   165s
  55   4.26344560e+02  4.26006589e+02  6.45e-07 3.09e-13  7.00e-08   168s
  56   4.26343514e+02  4.26058874e+02  5.74e-07 3.94e-13  5.90e-08   171s
  57   4.26341737e+02  4.26091139e+02  4.57e-07 4.83e-13  5.19e-08   173s
  58   4.26339907e+02  4.26163297e+02  3.15e-07 1.63e-13  3.66e-08   176s
  59   4.26338446e+02  4.26190939e+02  2.23e-07 6.39e-14  3.06e-08   179s
  60   4.26337425e+02  4.26209028e+02  1.27e-07 3.98e-13  2.66e-08   180s
  61   4.26337222e+02  4.26215264e+02  1.17e-07 5.26e-13  2.53e-08   182s
  62   4.26337022e+02  4.26224569e+02  1.07e-07 5.33e-13  2.33e-08   184s
  63   4.26336784e+02  4.26228324e+02  9.59e-08 4.33e-13  2.25e-08   186s
  64   4.26336581e+02  4.26240171e+02  8.31e-08 3.45e-13  2.00e-08   188s
  65   4.26335685e+02  4.26291196e+02  1.42e-07 5.86e-13  9.22e-09   190s
  66   4.26335333e+02  4.26293696e+02  6.36e-08 3.73e-14  8.63e-09   192s
  67   4.26335293e+02  4.26298901e+02  5.87e-08 1.92e-13  7.54e-09   194s
  68   4.26335209e+02  4.26300376e+02  5.00e-08 3.94e-13  7.22e-09   196s
  69   4.26335173e+02  4.26307210e+02  4.59e-08 2.77e-13  5.79e-09   198s
  70   4.26335097e+02  4.26309939e+02  1.78e-08 2.63e-13  5.21e-09   199s
  71   4.26335037e+02  4.26316855e+02  1.03e-08 5.19e-13  3.77e-09   201s
  72   4.26334970e+02  4.26332939e+02  7.17e-09 1.07e-14  4.21e-10   202s
  73   4.26334825e+02  4.26334711e+02  1.04e-09 2.84e-12  2.36e-11   203s
  74   4.26334796e+02  4.26334796e+02  5.79e-10 6.03e-11  1.84e-14   204s

Barrier solved model in 74 iterations and 204.29 seconds (157.07 work units)
Optimal objective 4.26334796e+02


Root crossover log...

  299765 DPushes remaining with DInf 0.0000000e+00               206s
       0 DPushes remaining with DInf 0.0000000e+00               209s

  372078 PPushes remaining with PInf 0.0000000e+00               210s
  213012 PPushes remaining with PInf 0.0000000e+00               211s
   81053 PPushes remaining with PInf 0.0000000e+00               217s
   35667 PPushes remaining with PInf 0.0000000e+00               226s
   22854 PPushes remaining with PInf 0.0000000e+00               232s
   12838 PPushes remaining with PInf 0.0000000e+00               239s
    5392 PPushes remaining with PInf 0.0000000e+00               244s
    2489 PPushes remaining with PInf 0.0000000e+00               249s
    1293 PPushes remaining with PInf 0.0000000e+00               253s
       0 PPushes remaining with PInf 0.0000000e+00               258s

  Push phase complete: Pinf 0.0000000e+00, Dinf 1.6698158e-11    258s


Root simplex log...

Iteration    Objective       Primal Inf.    Dual Inf.      Time
  512553    4.2633480e+02   0.000000e+00   0.000000e+00    268s
  512553    4.2633480e+02   0.000000e+00   0.000000e+00    278s

Root relaxation: objective 4.263348e+02, 512553 iterations, 229.83 seconds (183.96 work units)

    Nodes    |    Current Node    |     Objective Bounds      |     Work
 Expl Unexpl |  Obj  Depth IntInf | Incumbent    BestBd   Gap | It/Node Time

     0     0  426.33480    0    4          -  426.33480      -     -  280s
H    0     0                    17106.533187  426.33480  97.5%     -  334s
     0     0  457.37751    0    2 17106.5332  457.37751  97.3%     - 1673s
H    0     0                     458.5129279  457.37751  0.25%     - 1719s

Cutting planes:
  Implied bound: 11573
  MIR: 24556
  RLT: 7

Explored 1 nodes (705564 simplex iterations) in 1719.39 seconds (1516.95 work units)
Thread count was 36 (of 36 available processors)

Solution count 2: 458.513 17106.5 

Optimal solution found (tolerance 1.00e-02)
Best objective 4.585129279223e+02, best bound 4.573775112190e+02, gap 0.2476%
Termination condition:  optimal
# ==========================================================
# = Solver Results                                         =
# ==========================================================
# ----------------------------------------------------------
#   Problem Information
# ----------------------------------------------------------
Problem: 
- Name: x1
  Lower bound: 457.3775112189944
  Upper bound: 458.5129279223483
  Number of objectives: 1
  Number of constraints: 4210755
  Number of variables: 1900399
  Number of binary variables: 12
  Number of integer variables: 12
  Number of continuous variables: 1900387
  Number of nonzeros: 13646246
  Sense: minimize
# ----------------------------------------------------------
#   Solver Information
# ----------------------------------------------------------
Solver: 
- Status: ok
  Return code: 0
  Message: Model was solved to optimality (subject to tolerances), and an optimal solution is available.
  Termination condition: optimal
  Termination message: Model was solved to optimality (subject to tolerances), and an optimal solution is available.
  Wall time: 1719.447219133377
  Error rc: 0
  Time: 1742.7958250045776
# ----------------------------------------------------------
#   Solution Information
# ----------------------------------------------------------
Solution: 
- number of solutions: 0
  number of solutions displayed: 0
# ============================================================================= #
# ============================================================================= #
fixing: vNetworkInvest[2030,Node_2,Node_6,cac1]
fixing: vNetworkInvest[2030,Node_3,Node_6,cac1]
fixing: vNetworkInvest[2030,Node_3,Node_4,cac1]
fixing: vNetworkInvest[2030,Node_4,Node_5,cac1]
fixing: vNetworkInvest[2030,Node_4,Node_6,cac1]
fixing: vNetworkInvest[2030,Node_6,Node_7,cac1]
fixing: vNetworkInvest[2030,Node_8,Node_9,cac1]
fixing: vNetworkInvest[2030,Node_7,Node_8,cac1]
fixing: vNetworkInvest[2030,Node_2,Node_3,cac1]
fixing: vNetworkInvest[2030,Node_1,Node_6,cac1]
fixing: vNetworkInvest[2030,Node_4,Node_9,cac1]
fixing: vNetworkInvest[2030,Node_6,Node_8,cac1]
Number of fixed variables:  12
# ============================================================================= #
# ============================================================================= #
WARNING: Implicitly replacing the Component attribute dual (type=<class
'pyomo.core.base.suffix.Suffix'>) on block 'openStarNet - Open Version of the
StartNetLite Model (Long Term Transmission Expansion Planning) - Version 1.0.0
- January 16, 2023' with a new Component (type=<class
'pyomo.core.base.suffix.Suffix'>). This is usually indicative of a modelling
error. To avoid this warning, use block.del_component() and
block.add_component().
WARNING: Implicitly replacing the Component attribute rc (type=<class
'pyomo.core.base.suffix.Suffix'>) on block 'openStarNet - Open Version of the
StartNetLite Model (Long Term Transmission Expansion Planning) - Version 1.0.0
- January 16, 2023' with a new Component (type=<class
'pyomo.core.base.suffix.Suffix'>). This is usually indicative of a modelling
error. To avoid this warning, use block.del_component() and
block.add_component().
# ==========================================================
# = Solver Results                                         =
# ==========================================================
# ----------------------------------------------------------
#   Problem Information
# ----------------------------------------------------------
Problem: 
- Name: x1
  Lower bound: 458.512927922347
  Upper bound: 458.512927922347
  Number of objectives: 1
  Number of constraints: 4210755
  Number of variables: 1900387
  Number of binary variables: 0
  Number of integer variables: 0
  Number of continuous variables: 1900387
  Number of nonzeros: 11968922
  Sense: minimize
# ----------------------------------------------------------
#   Solver Information
# ----------------------------------------------------------
Solver: 
- Status: ok
  Return code: 0
  Message: Model was solved to optimality (subject to tolerances), and an optimal solution is available.
  Termination condition: optimal
  Termination message: Model was solved to optimality (subject to tolerances), and an optimal solution is available.
  Wall time: 147.38801288604736
  Error rc: 0
  Time: 182.0555717945099
# ----------------------------------------------------------
#   Solution Information
# ----------------------------------------------------------
Solution: 
- number of solutions: 0
  number of solutions displayed: 0
Solving                               ...  2150 s
Objective function value                   458.51 M€
Objective function value                   458.512927922347
Writing         cost summary results  ...  0 s
Writing           investment results  ...  0 s
Writing       energy balance results  ...  20 s
Writing    network operation results  ...  6 s
Writing generation operation results  ...  5 s
Writing        ESS operation results  ...  0 s
Writing             economic results  ...  1 s

 #### Academic research license - for non-commercial use only #### 

Elapsed time: 2486 seconds
